c Generated map
c Size: 13 * 13, weights in range: 1 to 10, walls: True, with ratio 0.1
c dim 1 of 3
c
p sp 169 253
c graph contains 169 nodes and 253 arcs
c
a 1 14 3
a 14 1 3
a 1 2 9
a 2 1 9
a 2 15 3
a 15 2 3
a 2 3 3
a 3 2 3
a 3 16 10
a 16 3 10
a 3 4 5
a 4 3 5
a 4 17 4
a 17 4 4
a 6 19 2
a 19 6 2
a 6 7 2
a 7 6 2
a 7 20 5
a 20 7 5
a 7 8 9
a 8 7 9
a 8 21 1
a 21 8 1
a 8 9 6
a 9 8 6
a 9 10 1
a 10 9 1
a 10 23 8
a 23 10 8
a 12 25 9
a 25 12 9
a 12 13 5
a 13 12 5
a 13 26 4
a 26 13 4
a 14 27 6
a 27 14 6
a 14 15 10
a 15 14 10
a 15 28 7
a 28 15 7
a 15 16 5
a 16 15 5
a 16 29 7
a 29 16 7
a 16 17 2
a 17 16 2
a 17 30 2
a 30 17 2
a 17 18 10
a 18 17 10
a 18 31 10
a 31 18 10
a 18 19 2
a 19 18 2
a 19 32 1
a 32 19 1
a 19 20 7
a 20 19 7
a 20 33 10
a 33 20 10
a 20 21 10
a 21 20 10
a 21 34 10
a 34 21 10
a 23 36 5
a 36 23 5
a 23 24 7
a 24 23 7
a 24 37 9
a 37 24 9
a 24 25 1
a 25 24 1
a 25 38 7
a 38 25 7
a 25 26 7
a 26 25 7
a 26 39 3
a 39 26 3
a 27 40 6
a 40 27 6
a 27 28 3
a 28 27 3
a 28 41 10
a 41 28 10
a 28 29 3
a 29 28 3
a 29 42 6
a 42 29 6
a 29 30 10
a 30 29 10
a 30 43 5
a 43 30 5
a 30 31 3
a 31 30 3
a 31 32 5
a 32 31 5
a 32 45 1
a 45 32 1
a 32 33 8
a 33 32 8
a 33 46 4
a 46 33 4
a 33 34 6
a 34 33 6
a 34 47 3
a 47 34 3
a 34 35 5
a 35 34 5
a 35 48 6
a 48 35 6
a 35 36 9
a 36 35 9
a 36 37 9
a 37 36 9
a 37 50 8
a 50 37 8
a 37 38 8
a 38 37 8
a 38 51 8
a 51 38 8
a 38 39 8
a 39 38 8
a 39 52 3
a 52 39 3
a 40 53 1
a 53 40 1
a 40 41 3
a 41 40 3
a 41 54 9
a 54 41 9
a 41 42 6
a 42 41 6
a 42 55 4
a 55 42 4
a 42 43 7
a 43 42 7
a 43 56 9
a 56 43 9
a 45 58 7
a 58 45 7
a 45 46 9
a 46 45 9
a 46 59 4
a 59 46 4
a 46 47 2
a 47 46 2
a 47 60 4
a 60 47 4
a 47 48 1
a 48 47 1
a 48 61 10
a 61 48 10
a 50 51 10
a 51 50 10
a 51 64 5
a 64 51 5
a 51 52 1
a 52 51 1
a 53 66 4
a 66 53 4
a 53 54 10
a 54 53 10
a 54 67 1
a 67 54 1
a 54 55 4
a 55 54 4
a 55 68 10
a 68 55 10
a 55 56 8
a 56 55 8
a 56 69 3
a 69 56 3
a 56 57 2
a 57 56 2
a 57 70 10
a 70 57 10
a 57 58 3
a 58 57 3
a 58 71 9
a 71 58 9
a 58 59 2
a 59 58 2
a 59 72 2
a 72 59 2
a 59 60 4
a 60 59 4
a 60 73 3
a 73 60 3
a 60 61 4
a 61 60 4
a 61 74 1
a 74 61 1
a 61 62 7
a 62 61 7
a 62 75 5
a 75 62 5
a 64 77 1
a 77 64 1
a 66 79 10
a 79 66 10
a 66 67 10
a 67 66 10
a 67 80 4
a 80 67 4
a 67 68 1
a 68 67 1
a 68 81 1
a 81 68 1
a 68 69 8
a 69 68 8
a 69 82 10
a 82 69 10
a 69 70 10
a 70 69 10
a 70 83 10
a 83 70 10
a 70 71 3
a 71 70 3
a 71 72 4
a 72 71 4
a 72 85 3
a 85 72 3
a 72 73 2
a 73 72 2
a 73 86 10
a 86 73 10
a 73 74 9
a 74 73 9
a 74 87 7
a 87 74 7
a 74 75 7
a 75 74 7
a 75 88 6
a 88 75 6
a 75 76 3
a 76 75 3
a 76 89 1
a 89 76 1
a 76 77 4
a 77 76 4
a 77 90 9
a 90 77 9
a 77 78 8
a 78 77 8
a 79 80 3
a 80 79 3
a 80 93 10
a 93 80 10
a 80 81 1
a 81 80 1
a 81 94 6
a 94 81 6
a 81 82 9
a 82 81 9
a 82 95 10
a 95 82 10
a 82 83 9
a 83 82 9
a 83 96 2
a 96 83 2
a 85 98 10
a 98 85 10
a 85 86 2
a 86 85 2
a 86 99 8
a 99 86 8
a 86 87 8
a 87 86 8
a 87 100 3
a 100 87 3
a 87 88 4
a 88 87 4
a 88 101 9
a 101 88 9
a 88 89 8
a 89 88 8
a 89 102 1
a 102 89 1
a 89 90 7
a 90 89 7
a 90 103 3
a 103 90 3
a 93 106 7
a 106 93 7
a 93 94 7
a 94 93 7
a 94 107 7
a 107 94 7
a 94 95 3
a 95 94 3
a 95 108 6
a 108 95 6
a 95 96 10
a 96 95 10
a 96 109 9
a 109 96 9
a 96 97 5
a 97 96 5
a 97 110 3
a 110 97 3
a 97 98 6
a 98 97 6
a 98 111 10
a 111 98 10
a 98 99 5
a 99 98 5
a 99 112 2
a 112 99 2
a 99 100 8
a 100 99 8
a 100 113 10
a 113 100 10
a 100 101 9
a 101 100 9
a 101 102 6
a 102 101 6
a 102 115 6
a 115 102 6
a 102 103 2
a 103 102 2
a 103 116 3
a 116 103 3
a 103 104 2
a 104 103 2
a 104 117 4
a 117 104 4
a 105 118 3
a 118 105 3
a 105 106 4
a 106 105 4
a 106 119 5
a 119 106 5
a 106 107 3
a 107 106 3
a 107 120 7
a 120 107 7
a 107 108 10
a 108 107 10
a 108 121 5
a 121 108 5
a 108 109 5
a 109 108 5
a 109 122 6
a 122 109 6
a 109 110 9
a 110 109 9
a 110 123 7
a 123 110 7
a 110 111 5
a 111 110 5
a 111 124 6
a 124 111 6
a 111 112 9
a 112 111 9
a 112 125 2
a 125 112 2
a 112 113 6
a 113 112 6
a 113 126 3
a 126 113 3
a 115 128 9
a 128 115 9
a 115 116 1
a 116 115 1
a 116 129 6
a 129 116 6
a 116 117 8
a 117 116 8
a 117 130 10
a 130 117 10
a 118 131 8
a 131 118 8
a 118 119 7
a 119 118 7
a 119 132 2
a 132 119 2
a 119 120 2
a 120 119 2
a 120 133 6
a 133 120 6
a 120 121 6
a 121 120 6
a 121 134 5
a 134 121 5
a 121 122 9
a 122 121 9
a 122 135 8
a 135 122 8
a 122 123 5
a 123 122 5
a 123 136 9
a 136 123 9
a 123 124 2
a 124 123 2
a 124 137 5
a 137 124 5
a 124 125 5
a 125 124 5
a 125 138 6
a 138 125 6
a 125 126 6
a 126 125 6
a 126 139 1
a 139 126 1
a 126 127 6
a 127 126 6
a 127 140 5
a 140 127 5
a 127 128 10
a 128 127 10
a 128 129 8
a 129 128 8
a 129 142 5
a 142 129 5
a 129 130 4
a 130 129 4
a 130 143 6
a 143 130 6
a 131 144 6
a 144 131 6
a 131 132 5
a 132 131 5
a 132 145 2
a 145 132 2
a 132 133 7
a 133 132 7
a 133 146 4
a 146 133 4
a 133 134 10
a 134 133 10
a 134 147 1
a 147 134 1
a 134 135 8
a 135 134 8
a 135 136 8
a 136 135 8
a 136 149 8
a 149 136 8
a 136 137 1
a 137 136 1
a 137 150 6
a 150 137 6
a 137 138 1
a 138 137 1
a 138 139 9
a 139 138 9
a 139 152 10
a 152 139 10
a 139 140 1
a 140 139 1
a 140 153 8
a 153 140 8
a 142 155 6
a 155 142 6
a 142 143 8
a 143 142 8
a 143 156 9
a 156 143 9
a 144 145 4
a 145 144 4
a 145 158 9
a 158 145 9
a 145 146 3
a 146 145 3
a 146 159 1
a 159 146 1
a 146 147 4
a 147 146 4
a 149 162 3
a 162 149 3
a 149 150 4
a 150 149 4
a 150 163 1
a 163 150 1
a 152 165 9
a 165 152 9
a 152 153 9
a 153 152 9
a 153 166 2
a 166 153 2
a 155 168 5
a 168 155 5
a 155 156 5
a 156 155 5
a 156 169 5
a 169 156 5
a 158 159 2
a 159 158 2
a 161 162 8
a 162 161 8
a 162 163 4
a 163 162 4
a 163 164 3
a 164 163 3
a 164 165 9
a 165 164 9
a 165 166 3
a 166 165 3
a 166 167 1
a 167 166 1
a 167 168 1
a 168 167 1
a 168 169 1
a 169 168 1
